1111100 AB
326 366 386 406 421 436 452 468 484 499 515 534 563 588 612 635 657 680 702 725 748 763 778 793 808 831 855 879 902 926 949 973 995 1013 1029 1042 1060 1076 1090 1105 1120 1136 1156 1180 1204 1229 1275 1317 1361 1405
1111100 BA
345 385 405 427 447 462 478 494 510 525 541 558 587 612 636 659 681 704 726 749 772 787 802 817 832 855 879 903 926 950 974 999 1021 1039 1055 1068 1085 1099 1113 1128 1143 1159 1179 1203 1227 1252 1294 1336 1380 1424
0000010 AB
327 367 408 448 468 490 512 534 559 602 626 670 692 714 736 758 780 802 824 848 871 894 938 962 984 1006 1028 1050 1072 1094 1116 1138 1182 1229 1275 1317 1361 1405
0000010 BA
347 387 428 468 488 510 535 557 583 626 650 694 716 738 760 782 804 826 848 872 895 918 962 986 1008 1030 1052 1074 1096 1118 1140 1162 1206 1253 1298 1340 1384 1428
